p cnf 145 590
-1 -33 0
-2 -33 0
1 2 33 0
1 2 -34 0
-1 -2 -34 0
-1 2 34 0
1 -2 34 0
33 -35 0
-3 -35 0
3 -33 35 0
3 -33 -36 0
-3 33 -36 0
3 33 36 0
-3 -33 36 0
35 -37 0
-4 -37 0
4 -35 37 0
4 -35 -38 0
-4 35 -38 0
4 35 38 0
-4 -35 38 0
37 -39 0
-5 -39 0
5 -37 39 0
5 -37 -40 0
-5 37 -40 0
5 37 40 0
-5 -37 40 0
39 -41 0
-6 -41 0
6 -39 41 0
6 -39 -42 0
-6 39 -42 0
6 39 42 0
-6 -39 42 0
41 -43 0
-7 -43 0
7 -41 43 0
7 -41 -44 0
-7 41 -44 0
7 41 44 0
-7 -41 44 0
43 -45 0
-8 -45 0
8 -43 45 0
8 -43 -46 0
-8 43 -46 0
8 43 46 0
-8 -43 46 0
2 -47 0
1 -47 0
-1 -2 47 0
-1 -2 -48 0
1 2 -48 0
1 -2 48 0
-1 2 48 0
-2 -3 49 0
-3 -47 49 0
-2 -47 49 0
2 3 -49 0
3 47 -49 0
2 47 -49 0
3 -49 -50 0
2 -49 -50 0
47 -49 -50 0
-3 49 50 0
-2 49 50 0
-47 49 50 0
-2 -3 -47 50 0
2 3 47 -50 0
-3 -4 51 0
-4 -49 51 0
-3 -49 51 0
3 4 -51 0
4 49 -51 0
3 49 -51 0
4 -51 -52 0
3 -51 -52 0
49 -51 -52 0
-4 51 52 0
-3 51 52 0
-49 51 52 0
-3 -4 -49 52 0
3 4 49 -52 0
-4 -5 53 0
-5 -51 53 0
-4 -51 53 0
4 5 -53 0
5 51 -53 0
4 51 -53 0
5 -53 -54 0
4 -53 -54 0
51 -53 -54 0
-5 53 54 0
-4 53 54 0
-51 53 54 0
-4 -5 -51 54 0
4 5 51 -54 0
-5 -6 55 0
-6 -53 55 0
-5 -53 55 0
5 6 -55 0
6 53 -55 0
5 53 -55 0
6 -55 -56 0
5 -55 -56 0
53 -55 -56 0
-6 55 56 0
-5 55 56 0
-53 55 56 0
-5 -6 -53 56 0
5 6 53 -56 0
-6 -7 57 0
-7 -55 57 0
-6 -55 57 0
6 7 -57 0
7 55 -57 0
6 55 -57 0
7 -57 -58 0
6 -57 -58 0
55 -57 -58 0
-7 57 58 0
-6 57 58 0
-55 57 58 0
-6 -7 -55 58 0
6 7 55 -58 0
-7 -8 59 0
-8 -57 59 0
-7 -57 59 0
7 8 -59 0
8 57 -59 0
7 57 -59 0
8 -59 -60 0
7 -59 -60 0
57 -59 -60 0
-8 59 60 0
-7 59 60 0
-57 59 60 0
-7 -8 -57 60 0
7 8 57 -60 0
8 -61 0
59 -61 0
-8 -59 61 0
-8 -59 -62 0
8 59 -62 0
-8 59 62 0
8 -59 62 0
50 -63 0
1 -63 0
-1 -50 63 0
-1 -50 -64 0
1 50 -64 0
1 -50 64 0
-1 50 64 0
-2 -52 65 0
-52 -63 65 0
-2 -63 65 0
2 52 -65 0
52 63 -65 0
2 63 -65 0
52 -65 -66 0
2 -65 -66 0
63 -65 -66 0
-52 65 66 0
-2 65 66 0
-63 65 66 0
-2 -52 -63 66 0
2 52 63 -66 0
-3 -54 67 0
-54 -65 67 0
-3 -65 67 0
3 54 -67 0
54 65 -67 0
3 65 -67 0
54 -67 -68 0
3 -67 -68 0
65 -67 -68 0
-54 67 68 0
-3 67 68 0
-65 67 68 0
-3 -54 -65 68 0
3 54 65 -68 0
-4 -56 69 0
-56 -67 69 0
-4 -67 69 0
4 56 -69 0
56 67 -69 0
4 67 -69 0
56 -69 -70 0
4 -69 -70 0
67 -69 -70 0
-56 69 70 0
-4 69 70 0
-67 69 70 0
-4 -56 -67 70 0
4 56 67 -70 0
-5 -58 71 0
-58 -69 71 0
-5 -69 71 0
5 58 -71 0
58 69 -71 0
5 69 -71 0
58 -71 -72 0
5 -71 -72 0
69 -71 -72 0
-58 71 72 0
-5 71 72 0
-69 71 72 0
-5 -58 -69 72 0
5 58 69 -72 0
-6 -60 73 0
-60 -71 73 0
-6 -71 73 0
6 60 -73 0
60 71 -73 0
6 71 -73 0
60 -73 -74 0
6 -73 -74 0
71 -73 -74 0
-60 73 74 0
-6 73 74 0
-71 73 74 0
-6 -60 -71 74 0
6 60 71 -74 0
-7 -62 75 0
-62 -73 75 0
-7 -73 75 0
7 62 -75 0
62 73 -75 0
7 73 -75 0
62 -75 -76 0
7 -75 -76 0
73 -75 -76 0
-62 75 76 0
-7 75 76 0
-73 75 76 0
-7 -62 -73 76 0
7 62 73 -76 0
-8 -61 77 0
-61 -75 77 0
-8 -75 77 0
8 61 -77 0
61 75 -77 0
8 75 -77 0
61 -77 -78 0
8 -77 -78 0
75 -77 -78 0
-61 77 78 0
-8 77 78 0
-75 77 78 0
-8 -61 -75 78 0
8 61 75 -78 0
68 -79 0
1 -79 0
-1 -68 79 0
-1 -68 -80 0
1 68 -80 0
1 -68 80 0
-1 68 80 0
-2 -70 81 0
-70 -79 81 0
-2 -79 81 0
2 70 -81 0
70 79 -81 0
2 79 -81 0
70 -81 -82 0
2 -81 -82 0
79 -81 -82 0
-70 81 82 0
-2 81 82 0
-79 81 82 0
-2 -70 -79 82 0
2 70 79 -82 0
-3 -72 83 0
-72 -81 83 0
-3 -81 83 0
3 72 -83 0
72 81 -83 0
3 81 -83 0
72 -83 -84 0
3 -83 -84 0
81 -83 -84 0
-72 83 84 0
-3 83 84 0
-81 83 84 0
-3 -72 -81 84 0
3 72 81 -84 0
-4 -74 85 0
-74 -83 85 0
-4 -83 85 0
4 74 -85 0
74 83 -85 0
4 83 -85 0
74 -85 -86 0
4 -85 -86 0
83 -85 -86 0
-74 85 86 0
-4 85 86 0
-83 85 86 0
-4 -74 -83 86 0
4 74 83 -86 0
-5 -76 87 0
-76 -85 87 0
-5 -85 87 0
5 76 -87 0
76 85 -87 0
5 85 -87 0
76 -87 -88 0
5 -87 -88 0
85 -87 -88 0
-76 87 88 0
-5 87 88 0
-85 87 88 0
-5 -76 -85 88 0
5 76 85 -88 0
-6 -78 89 0
-78 -87 89 0
-6 -87 89 0
6 78 -89 0
78 87 -89 0
6 87 -89 0
78 -89 -90 0
6 -89 -90 0
87 -89 -90 0
-78 89 90 0
-6 89 90 0
-87 89 90 0
-6 -78 -87 90 0
6 78 87 -90 0
-7 -77 91 0
-77 -89 91 0
-7 -89 91 0
7 77 -91 0
77 89 -91 0
7 89 -91 0
77 -91 -92 0
7 -91 -92 0
89 -91 -92 0
-77 91 92 0
-7 91 92 0
-89 91 92 0
-7 -77 -89 92 0
7 77 89 -92 0
8 -93 0
91 -93 0
-8 -91 93 0
-8 -91 -94 0
8 91 -94 0
-8 91 94 0
8 -91 94 0
-1 -95 0
-48 -95 0
1 48 95 0
1 48 -96 0
-1 -48 -96 0
-1 48 96 0
1 -48 96 0
95 -97 0
-64 -97 0
64 -95 97 0
64 -95 -98 0
-64 95 -98 0
64 95 98 0
-64 -95 98 0
97 -99 0
-66 -99 0
66 -97 99 0
66 -97 -100 0
-66 97 -100 0
66 97 100 0
-66 -97 100 0
99 -101 0
-80 -101 0
80 -99 101 0
80 -99 -102 0
-80 99 -102 0
80 99 102 0
-80 -99 102 0
101 -103 0
-82 -103 0
82 -101 103 0
82 -101 -104 0
-82 101 -104 0
82 101 104 0
-82 -101 104 0
103 -105 0
-84 -105 0
84 -103 105 0
84 -103 -106 0
-84 103 -106 0
84 103 106 0
-84 -103 106 0
105 -107 0
-86 -107 0
86 -105 107 0
86 -105 -108 0
-86 105 -108 0
86 105 108 0
-86 -105 108 0
107 -109 0
-88 -109 0
88 -107 109 0
88 -107 -110 0
-88 107 -110 0
88 107 110 0
-88 -107 110 0
109 -111 0
-90 -111 0
90 -109 111 0
90 -109 -112 0
-90 109 -112 0
90 109 112 0
-90 -109 112 0
111 -113 0
-92 -113 0
92 -111 113 0
92 -111 -114 0
-92 111 -114 0
92 111 114 0
-92 -111 114 0
113 -115 0
-94 -115 0
94 -113 115 0
94 -113 -116 0
-94 113 -116 0
94 113 116 0
-94 -113 116 0
115 -117 0
-93 -117 0
93 -115 117 0
93 -115 -118 0
-93 115 -118 0
93 115 118 0
-93 -115 118 0
1 -119 0
9 -119 0
-1 -9 119 0
-1 -9 -120 0
1 9 -120 0
-1 9 120 0
1 -9 120 0
-10 -48 121 0
-48 -119 121 0
-10 -119 121 0
10 48 -121 0
48 119 -121 0
10 119 -121 0
48 -121 -122 0
10 -121 -122 0
119 -121 -122 0
-48 121 122 0
-10 121 122 0
-119 121 122 0
-10 -48 -119 122 0
10 48 119 -122 0
-11 -64 123 0
-64 -121 123 0
-11 -121 123 0
11 64 -123 0
64 121 -123 0
11 121 -123 0
64 -123 -124 0
11 -123 -124 0
121 -123 -124 0
-64 123 124 0
-11 123 124 0
-121 123 124 0
-11 -64 -121 124 0
11 64 121 -124 0
-12 -66 125 0
-66 -123 125 0
-12 -123 125 0
12 66 -125 0
66 123 -125 0
12 123 -125 0
66 -125 -126 0
12 -125 -126 0
123 -125 -126 0
-66 125 126 0
-12 125 126 0
-123 125 126 0
-12 -66 -123 126 0
12 66 123 -126 0
-13 -80 127 0
-80 -125 127 0
-13 -125 127 0
13 80 -127 0
80 125 -127 0
13 125 -127 0
80 -127 -128 0
13 -127 -128 0
125 -127 -128 0
-80 127 128 0
-13 127 128 0
-125 127 128 0
-13 -80 -125 128 0
13 80 125 -128 0
-14 -82 129 0
-82 -127 129 0
-14 -127 129 0
14 82 -129 0
82 127 -129 0
14 127 -129 0
82 -129 -130 0
14 -129 -130 0
127 -129 -130 0
-82 129 130 0
-14 129 130 0
-127 129 130 0
-14 -82 -127 130 0
14 82 127 -130 0
-15 -84 131 0
-84 -129 131 0
-15 -129 131 0
15 84 -131 0
84 129 -131 0
15 129 -131 0
84 -131 -132 0
15 -131 -132 0
129 -131 -132 0
-84 131 132 0
-15 131 132 0
-129 131 132 0
-15 -84 -129 132 0
15 84 129 -132 0
-16 -86 133 0
-86 -131 133 0
-16 -131 133 0
16 86 -133 0
86 131 -133 0
16 131 -133 0
86 -133 -134 0
16 -133 -134 0
131 -133 -134 0
-86 133 134 0
-16 133 134 0
-131 133 134 0
-16 -86 -131 134 0
16 86 131 -134 0
88 -135 0
133 -135 0
-88 -133 135 0
-88 -133 -136 0
88 133 -136 0
-88 133 136 0
88 -133 136 0
90 -137 0
135 -137 0
-90 -135 137 0
-90 -135 -138 0
90 135 -138 0
-90 135 138 0
90 -135 138 0
92 -139 0
137 -139 0
-92 -137 139 0
-92 -137 -140 0
92 137 -140 0
-92 137 140 0
92 -137 140 0
94 -141 0
139 -141 0
-94 -139 141 0
-94 -139 -142 0
94 139 -142 0
-94 139 142 0
94 -139 142 0
93 -143 0
141 -143 0
-93 -141 143 0
-93 -141 -144 0
93 141 -144 0
-93 141 144 0
93 -141 144 0
-120 -145 0
-122 -145 0
-124 -145 0
-126 -145 0
-128 -145 0
130 -145 0
132 -145 0
-134 -145 0
-136 -145 0
-138 -145 0
-140 -145 0
-142 -145 0
-143 -145 0
-144 -145 0
120 122 124 126 128 -130 -132 134 136 138 140 142 143 144 145 0
145 0
c main::$tmp::return_value_nondet_char!0@1#1 17 18 19 20 21 22 23 24
c symex::nondet1 9 10 11 12 13 14 15 16
c symex::nondet0 1 2 3 4 5 6 7 8
c main::$tmp::return_value_nondet_char$0!0@1#2 9 10 11 12 13 14 15 16
c __CPROVER_rounding_mode!0#1 FALSE FALSE FALSE FALSE FALSE FALSE FALSE FALSE FALSE FALSE FALSE FALSE FALSE FALSE FALSE FALSE FALSE FALSE FALSE FALSE FALSE FALSE FALSE FALSE FALSE FALSE FALSE FALSE FALSE FALSE FALSE FALSE
c main::$tmp::return_value_nondet_char$0!0@1#1 25 26 27 28 29 30 31 32
c __CPROVER_memory_leak#1 FALSE FALSE FALSE FALSE FALSE FALSE FALSE FALSE FALSE FALSE FALSE FALSE FALSE FALSE FALSE FALSE FALSE FALSE FALSE FALSE FALSE FALSE FALSE FALSE FALSE FALSE FALSE FALSE FALSE FALSE FALSE FALSE FALSE FALSE FALSE FALSE FALSE FALSE FALSE FALSE FALSE FALSE FALSE FALSE FALSE FALSE FALSE FALSE FALSE FALSE FALSE FALSE FALSE FALSE FALSE FALSE FALSE FALSE FALSE FALSE FALSE FALSE FALSE FALSE
c __CPROVER_max_malloc_size#1 FALSE FALSE FALSE FALSE FALSE FALSE FALSE FALSE FALSE FALSE FALSE FALSE FALSE FALSE FALSE FALSE FALSE FALSE FALSE FALSE FALSE FALSE FALSE FALSE FALSE FALSE FALSE FALSE FALSE FALSE FALSE FALSE FALSE FALSE FALSE FALSE FALSE FALSE FALSE FALSE FALSE FALSE FALSE FALSE FALSE FALSE FALSE FALSE FALSE FALSE FALSE FALSE FALSE FALSE FALSE TRUE FALSE FALSE FALSE FALSE FALSE FALSE FALSE FALSE
c __CPROVER_deallocated#1 FALSE FALSE FALSE FALSE FALSE FALSE FALSE FALSE FALSE FALSE FALSE FALSE FALSE FALSE FALSE FALSE FALSE FALSE FALSE FALSE FALSE FALSE FALSE FALSE FALSE FALSE FALSE FALSE FALSE FALSE FALSE FALSE FALSE FALSE FALSE FALSE FALSE FALSE FALSE FALSE FALSE FALSE FALSE FALSE FALSE FALSE FALSE FALSE FALSE FALSE FALSE FALSE FALSE FALSE FALSE FALSE FALSE FALSE FALSE FALSE FALSE FALSE FALSE FALSE
c main::$tmp::return_value_nondet_char!0@1#2 1 2 3 4 5 6 7 8
c __CPROVER_dead_object#1 FALSE FALSE FALSE FALSE FALSE FALSE FALSE FALSE FALSE FALSE FALSE FALSE FALSE FALSE FALSE FALSE FALSE FALSE FALSE FALSE FALSE FALSE FALSE FALSE FALSE FALSE FALSE FALSE FALSE FALSE FALSE FALSE FALSE FALSE FALSE FALSE FALSE FALSE FALSE FALSE FALSE FALSE FALSE FALSE FALSE FALSE FALSE FALSE FALSE FALSE FALSE FALSE FALSE FALSE FALSE FALSE FALSE FALSE FALSE FALSE FALSE FALSE FALSE FALSE
